out/bwp_9_10_1_lp.out
4
0 0    0 1
1 0    1 1
2 0    2 1
5 0    6 0
7 0    8 0
0 3    0 3
1 3    1 3
2 3    2 3
3 0    4 3
5 1    8 2
