out/bwp_9_10_1_lp.log
Tried aggregator 2 times.
MIP Presolve eliminated 13 rows and 4 columns.
MIP Presolve modified 186 coefficients.
Aggregator did 186 substitutions.
Reduced MIP has 1015 rows, 922 columns, and 2545 nonzeros.
Reduced MIP has 547 binaries, 21 generals, 0 SOSs, and 270 indicators.
Presolve time = 0.01 sec. (2.61 ticks)
Found incumbent of value 21.000000 after 0.01 sec. (4.36 ticks)
Probing fixed 42 vars, tightened 160 bounds.
Probing time = 0.03 sec. (9.41 ticks)
Tried aggregator 3 times.
MIP Presolve eliminated 65 rows and 55 columns.
MIP Presolve modified 496 coefficients.
Aggregator did 289 substitutions.
Reduced MIP has 673 rows, 578 columns, and 1900 nonzeros.
Reduced MIP has 412 binaries, 149 generals, 0 SOSs, and 230 indicators.
Presolve time = 0.01 sec. (4.02 ticks)
Probing time = 0.01 sec. (2.49 ticks)
Tried aggregator 1 time.
MIP Presolve eliminated 12 rows and 0 columns.
Reduced MIP has 663 rows, 578 columns, and 1880 nonzeros.
Reduced MIP has 412 binaries, 149 generals, 0 SOSs, and 228 indicators.
Presolve time = 0.00 sec. (0.98 ticks)
Probing time = 0.01 sec. (2.09 ticks)
Clique table members: 51.
MIP emphasis: balance optimality and feasibility.
MIP search method: dynamic search.
Parallel mode: deterministic, using up to 4 threads.
Root relaxation solution time = 0.00 sec. (1.62 ticks)

        Nodes                                         Cuts/
   Node  Left     Objective  IInf  Best Integer    Best Bound    ItCnt     Gap

*     0+    0                           21.0000        4.0000      229   80.95%
      0     0        4.0000   222       21.0000        4.0000      229   80.95%
      0     0        4.0000   167       21.0000      Cuts: 34      254   80.95%
      0     0        4.0000   151       21.0000      Cuts: 94      311   80.95%
      0     0        4.0000   132       21.0000      Cuts: 37      338   80.95%
      0     0        4.0000   112       21.0000      Cuts: 19      357   80.95%
      0     0        4.0000   111       21.0000      Cuts: 13      366   80.95%
      0     0        4.0000    91       21.0000   ZeroHalf: 4      367   80.95%
      0     0        4.0000   136       21.0000      Cuts: 33      425   80.95%
*     0+    0                            4.0000        4.0000      425    0.00%
      0     0        cutoff              4.0000        4.0000      425    0.00%
Elapsed time = 0.26 sec. (104.05 ticks, tree = 0.00 MB, solutions = 2)

Implied bound cuts applied:  13
Flow cuts applied:  2
Mixed integer rounding cuts applied:  5
Gomory fractional cuts applied:  4

Root node processing (before b&c):
  Real time             =    0.26 sec. (104.08 ticks)
Parallel b&c, 4 threads:
  Real time             =    0.00 sec. (0.00 ticks)
  Sync time (average)   =    0.00 sec.
  Wait time (average)   =    0.00 sec.
                          ------------
Total (root+branch&cut) =    0.26 sec. (104.08 ticks)
